c instance by G2
c solution = 010000100
c Known solution cost is 448 
p cnf 9 30
w 23 60 76 57 80 55 72 8 17
6 -3 -5 0
-4 8 5 0
-2 5 -6 0
-6 -5 2 0
8 -1 4 0
1 -6 9 0
-7 6 -8 0
-4 7 -2 0
4 1 2 0
-1 5 4 0
8 7 9 0
-9 -8 -2 0
7 3 2 0
-5 4 -1 0
-9 -2 7 0
-6 -2 -8 0
-9 -1 8 0
-6 -3 9 0
-6 2 4 0
-7 -9 3 0
-8 2 7 0
-2 9 -3 0
1 -5 9 0
3 -1 -5 0
5 4 -1 0
8 -4 -2 0
3 2 -6 0
-2 -3 -6 0
1 5 7 0
-5 6 9 0
